10
1 0 7
2 0 13
2 1 5
3 0 7
3 1 8
3 2 6
4 0 4
4 1 7
4 2 10
4 3 6
5 0 9
5 1 8
5 2 13
5 3 13
5 4 11
6 0 3
6 1 2
6 2 3
6 3 6
6 4 3
6 5 2
7 0 10
7 1 3
7 2 10
7 3 4
7 4 4
7 5 10
7 6 9
8 0 10
8 1 6
8 2 4
8 3 11
8 4 13
8 5 1
8 6 12
8 7 9
9 0 8
9 1 2
9 2 4
9 3 9
9 4 5
9 5 11
9 6 1
9 7 3
9 8 13
